p cnf 228 929
1 2 3 4 0
-1 145 0
-2 146 0
-145 146 0
-145 -2 0
-3 147 0
-146 147 0
-146 -3 0
-147 -4 0
-1 25 0
-1 5 0
-2 26 0
-2 6 0
-3 27 0
-3 7 0
-4 28 0
-4 8 0
5 6 7 8 0
-5 148 0
-6 149 0
-148 149 0
-148 -6 0
-7 150 0
-149 150 0
-149 -7 0
-150 -8 0
-5 1 9 0
-5 1 29 0
-5 9 29 0
-6 2 10 0
-6 2 30 0
-6 10 30 0
-7 3 11 0
-7 3 31 0
-7 11 31 0
-8 4 12 0
-8 4 32 0
-8 12 32 0
-5 -1 -9 -29 0
-6 -2 -10 -30 0
-7 -3 -11 -31 0
-8 -4 -12 -32 0
9 10 11 12 0
-9 151 0
-10 152 0
-151 152 0
-151 -10 0
-11 153 0
-152 153 0
-152 -11 0
-153 -12 0
-9 5 13 0
-9 5 33 0
-9 13 33 0
-10 6 14 0
-10 6 34 0
-10 14 34 0
-11 7 15 0
-11 7 35 0
-11 15 35 0
-12 8 16 0
-12 8 36 0
-12 16 36 0
-9 -5 -13 -33 0
-10 -6 -14 -34 0
-11 -7 -15 -35 0
-12 -8 -16 -36 0
-13 0
-14 0
-16 0
15 0
11 19 39 0
-11 -19 0
-11 -39 0
-19 -39 0
17 18 19 20 0
-17 154 0
-18 155 0
-154 155 0
-154 -18 0
-19 156 0
-155 156 0
-155 -19 0
-156 -20 0
-17 13 21 0
-17 13 41 0
-17 21 41 0
-18 14 22 0
-18 14 42 0
-18 22 42 0
-19 15 23 0
-19 15 43 0
-19 23 43 0
-20 16 24 0
-20 16 44 0
-20 24 44 0
-17 -13 -21 -41 0
-18 -14 -22 -42 0
-19 -15 -23 -43 0
-20 -16 -24 -44 0
-21 0
-23 0
-24 0
22 0
46 18 0
-46 -18 0
25 26 27 28 0
-25 157 0
-26 158 0
-157 158 0
-157 -26 0
-27 159 0
-158 159 0
-158 -27 0
-159 -28 0
-25 49 29 0
-25 49 1 0
-25 29 1 0
-26 50 30 0
-26 50 2 0
-26 30 2 0
-27 51 31 0
-27 51 3 0
-27 31 3 0
-28 52 32 0
-28 52 4 0
-28 32 4 0
-25 -49 -29 -1 0
-26 -50 -30 -2 0
-27 -51 -31 -3 0
-28 -52 -32 -4 0
-29 0
-30 0
-31 0
32 0
56 36 8 28 0
-56 -36 0
-56 -8 0
-56 -28 0
-36 -8 0
-36 -28 0
-8 -28 0
33 34 35 36 0
-33 160 0
-34 161 0
-160 161 0
-160 -34 0
-35 162 0
-161 162 0
-161 -35 0
-162 -36 0
-33 57 37 9 0
-33 57 37 29 0
-33 57 9 29 0
-33 37 9 29 0
-34 58 38 10 0
-34 58 38 30 0
-34 58 10 30 0
-34 38 10 30 0
-35 59 39 11 0
-35 59 39 31 0
-35 59 11 31 0
-35 39 11 31 0
-36 60 40 12 0
-36 60 40 32 0
-36 60 12 32 0
-36 40 12 32 0
-33 -57 -37 -9 0
-33 -57 -37 -29 0
-33 -57 -9 -29 0
-33 -37 -9 -29 0
-34 -58 -38 -10 0
-34 -58 -38 -30 0
-34 -58 -10 -30 0
-34 -38 -10 -30 0
-35 -59 -39 -11 0
-35 -59 -39 -31 0
-35 -59 -11 -31 0
-35 -39 -11 -31 0
-36 -60 -40 -12 0
-36 -60 -40 -32 0
-36 -60 -12 -32 0
-36 -40 -12 -32 0
37 38 39 40 0
-37 163 0
-38 164 0
-163 164 0
-163 -38 0
-39 165 0
-164 165 0
-164 -39 0
-165 -40 0
-37 61 41 13 0
-37 61 41 33 0
-37 61 13 33 0
-37 41 13 33 0
-38 62 42 14 0
-38 62 42 34 0
-38 62 14 34 0
-38 42 14 34 0
-39 63 43 15 0
-39 63 43 35 0
-39 63 15 35 0
-39 43 15 35 0
-40 64 44 16 0
-40 64 44 36 0
-40 64 16 36 0
-40 44 16 36 0
-37 -61 -41 -13 0
-37 -61 -41 -33 0
-37 -61 -13 -33 0
-37 -41 -13 -33 0
-38 -62 -42 -14 0
-38 -62 -42 -34 0
-38 -62 -14 -34 0
-38 -42 -14 -34 0
-39 -63 -43 -15 0
-39 -63 -43 -35 0
-39 -63 -15 -35 0
-39 -43 -15 -35 0
-40 -64 -44 -16 0
-40 -64 -44 -36 0
-40 -64 -16 -36 0
-40 -44 -16 -36 0
-41 0
-43 0
-44 0
42 0
66 46 18 38 0
-66 -46 0
-66 -18 0
-66 -38 0
-46 -18 0
-46 -38 0
-18 -38 0
-46 0
-47 0
-48 0
45 0
69 41 21 0
-69 -41 0
-69 -21 0
-41 -21 0
49 50 51 52 0
-49 166 0
-50 167 0
-166 167 0
-166 -50 0
-51 168 0
-167 168 0
-167 -51 0
-168 -52 0
-49 73 53 0
-49 73 25 0
-49 53 25 0
-50 74 54 0
-50 74 26 0
-50 54 26 0
-51 75 55 0
-51 75 27 0
-51 55 27 0
-52 76 56 0
-52 76 28 0
-52 56 28 0
-49 -73 -53 -25 0
-50 -74 -54 -26 0
-51 -75 -55 -27 0
-52 -76 -56 -28 0
53 54 55 56 0
-53 169 0
-54 170 0
-169 170 0
-169 -54 0
-55 171 0
-170 171 0
-170 -55 0
-171 -56 0
-53 77 57 29 0
-53 77 57 49 0
-53 77 29 49 0
-53 57 29 49 0
-54 78 58 30 0
-54 78 58 50 0
-54 78 30 50 0
-54 58 30 50 0
-55 79 59 31 0
-55 79 59 51 0
-55 79 31 51 0
-55 59 31 51 0
-56 80 60 32 0
-56 80 60 52 0
-56 80 32 52 0
-56 60 32 52 0
-53 -77 -57 -29 0
-53 -77 -57 -49 0
-53 -77 -29 -49 0
-53 -57 -29 -49 0
-54 -78 -58 -30 0
-54 -78 -58 -50 0
-54 -78 -30 -50 0
-54 -58 -30 -50 0
-55 -79 -59 -31 0
-55 -79 -59 -51 0
-55 -79 -31 -51 0
-55 -59 -31 -51 0
-56 -80 -60 -32 0
-56 -80 -60 -52 0
-56 -80 -32 -52 0
-56 -60 -32 -52 0
57 58 59 60 0
-57 172 0
-58 173 0
-172 173 0
-172 -58 0
-59 174 0
-173 174 0
-173 -59 0
-174 -60 0
-57 81 61 33 0
-57 81 61 53 0
-57 81 33 53 0
-57 61 33 53 0
-58 82 62 34 0
-58 82 62 54 0
-58 82 34 54 0
-58 62 34 54 0
-59 83 63 35 0
-59 83 63 55 0
-59 83 35 55 0
-59 63 35 55 0
-60 84 64 36 0
-60 84 64 56 0
-60 84 36 56 0
-60 64 36 56 0
-57 -81 -61 -33 0
-57 -81 -61 -53 0
-57 -81 -33 -53 0
-57 -61 -33 -53 0
-58 -82 -62 -34 0
-58 -82 -62 -54 0
-58 -82 -34 -54 0
-58 -62 -34 -54 0
-59 -83 -63 -35 0
-59 -83 -63 -55 0
-59 -83 -35 -55 0
-59 -63 -35 -55 0
-60 -84 -64 -36 0
-60 -84 -64 -56 0
-60 -84 -36 -56 0
-60 -64 -36 -56 0
61 62 63 64 0
-61 175 0
-62 176 0
-175 176 0
-175 -62 0
-63 177 0
-176 177 0
-176 -63 0
-177 -64 0
-61 85 65 37 0
-61 85 65 57 0
-61 85 37 57 0
-61 65 37 57 0
-62 86 66 38 0
-62 86 66 58 0
-62 86 38 58 0
-62 66 38 58 0
-63 87 67 39 0
-63 87 67 59 0
-63 87 39 59 0
-63 67 39 59 0
-64 88 68 40 0
-64 88 68 60 0
-64 88 40 60 0
-64 68 40 60 0
-61 -85 -65 -37 0
-61 -85 -65 -57 0
-61 -85 -37 -57 0
-61 -65 -37 -57 0
-62 -86 -66 -38 0
-62 -86 -66 -58 0
-62 -86 -38 -58 0
-62 -66 -38 -58 0
-63 -87 -67 -39 0
-63 -87 -67 -59 0
-63 -87 -39 -59 0
-63 -67 -39 -59 0
-64 -88 -68 -40 0
-64 -88 -68 -60 0
-64 -88 -40 -60 0
-64 -68 -40 -60 0
-65 0
-66 0
-68 0
67 0
91 71 43 63 0
-91 -71 0
-91 -43 0
-91 -63 0
-71 -43 0
-71 -63 0
-43 -63 0
69 70 71 72 0
-69 178 0
-70 179 0
-178 179 0
-178 -70 0
-71 180 0
-179 180 0
-179 -71 0
-180 -72 0
-69 93 65 0
-69 93 45 0
-69 65 45 0
-70 94 66 0
-70 94 46 0
-70 66 46 0
-71 95 67 0
-71 95 47 0
-71 67 47 0
-72 96 68 0
-72 96 48 0
-72 68 48 0
-69 -93 -65 -45 0
-70 -94 -66 -46 0
-71 -95 -67 -47 0
-72 -96 -68 -48 0
73 74 75 76 0
-73 181 0
-74 182 0
-181 182 0
-181 -74 0
-75 183 0
-182 183 0
-182 -75 0
-183 -76 0
-73 97 77 0
-73 97 49 0
-73 77 49 0
-74 98 78 0
-74 98 50 0
-74 78 50 0
-75 99 79 0
-75 99 51 0
-75 79 51 0
-76 100 80 0
-76 100 52 0
-76 80 52 0
-73 -97 -77 -49 0
-74 -98 -78 -50 0
-75 -99 -79 -51 0
-76 -100 -80 -52 0
77 78 79 80 0
-77 184 0
-78 185 0
-184 185 0
-184 -78 0
-79 186 0
-185 186 0
-185 -79 0
-186 -80 0
-77 101 81 53 0
-77 101 81 73 0
-77 101 53 73 0
-77 81 53 73 0
-78 102 82 54 0
-78 102 82 74 0
-78 102 54 74 0
-78 82 54 74 0
-79 103 83 55 0
-79 103 83 75 0
-79 103 55 75 0
-79 83 55 75 0
-80 104 84 56 0
-80 104 84 76 0
-80 104 56 76 0
-80 84 56 76 0
-77 -101 -81 -53 0
-77 -101 -81 -73 0
-77 -101 -53 -73 0
-77 -81 -53 -73 0
-78 -102 -82 -54 0
-78 -102 -82 -74 0
-78 -102 -54 -74 0
-78 -82 -54 -74 0
-79 -103 -83 -55 0
-79 -103 -83 -75 0
-79 -103 -55 -75 0
-79 -83 -55 -75 0
-80 -104 -84 -56 0
-80 -104 -84 -76 0
-80 -104 -56 -76 0
-80 -84 -56 -76 0
81 82 83 84 0
-81 187 0
-82 188 0
-187 188 0
-187 -82 0
-83 189 0
-188 189 0
-188 -83 0
-189 -84 0
-81 105 85 57 0
-81 105 85 77 0
-81 105 57 77 0
-81 85 57 77 0
-82 106 86 58 0
-82 106 86 78 0
-82 106 58 78 0
-82 86 58 78 0
-83 107 87 59 0
-83 107 87 79 0
-83 107 59 79 0
-83 87 59 79 0
-84 108 88 60 0
-84 108 88 80 0
-84 108 60 80 0
-84 88 60 80 0
-81 -105 -85 -57 0
-81 -105 -85 -77 0
-81 -105 -57 -77 0
-81 -85 -57 -77 0
-82 -106 -86 -58 0
-82 -106 -86 -78 0
-82 -106 -58 -78 0
-82 -86 -58 -78 0
-83 -107 -87 -59 0
-83 -107 -87 -79 0
-83 -107 -59 -79 0
-83 -87 -59 -79 0
-84 -108 -88 -60 0
-84 -108 -88 -80 0
-84 -108 -60 -80 0
-84 -88 -60 -80 0
-86 0
-87 0
-88 0
85 0
109 89 61 81 0
-109 -89 0
-109 -61 0
-109 -81 0
-89 -61 0
-89 -81 0
-61 -81 0
-89 0
-90 0
-91 0
92 0
116 96 68 88 0
-116 -96 0
-116 -68 0
-116 -88 0
-96 -68 0
-96 -88 0
-68 -88 0
93 94 95 96 0
-93 190 0
-94 191 0
-190 191 0
-190 -94 0
-95 192 0
-191 192 0
-191 -95 0
-192 -96 0
-93 117 89 0
-93 117 69 0
-93 89 69 0
-94 118 90 0
-94 118 70 0
-94 90 70 0
-95 119 91 0
-95 119 71 0
-95 91 71 0
-96 120 92 0
-96 120 72 0
-96 92 72 0
-93 -117 -89 -69 0
-94 -118 -90 -70 0
-95 -119 -91 -71 0
-96 -120 -92 -72 0
97 98 99 100 0
-97 193 0
-98 194 0
-193 194 0
-193 -98 0
-99 195 0
-194 195 0
-194 -99 0
-195 -100 0
-97 121 101 0
-97 121 73 0
-97 101 73 0
-98 122 102 0
-98 122 74 0
-98 102 74 0
-99 123 103 0
-99 123 75 0
-99 103 75 0
-100 124 104 0
-100 124 76 0
-100 104 76 0
-97 -121 -101 -73 0
-98 -122 -102 -74 0
-99 -123 -103 -75 0
-100 -124 -104 -76 0
101 102 103 104 0
-101 196 0
-102 197 0
-196 197 0
-196 -102 0
-103 198 0
-197 198 0
-197 -103 0
-198 -104 0
-101 125 105 77 0
-101 125 105 97 0
-101 125 77 97 0
-101 105 77 97 0
-102 126 106 78 0
-102 126 106 98 0
-102 126 78 98 0
-102 106 78 98 0
-103 127 107 79 0
-103 127 107 99 0
-103 127 79 99 0
-103 107 79 99 0
-104 128 108 80 0
-104 128 108 100 0
-104 128 80 100 0
-104 108 80 100 0
-101 -125 -105 -77 0
-101 -125 -105 -97 0
-101 -125 -77 -97 0
-101 -105 -77 -97 0
-102 -126 -106 -78 0
-102 -126 -106 -98 0
-102 -126 -78 -98 0
-102 -106 -78 -98 0
-103 -127 -107 -79 0
-103 -127 -107 -99 0
-103 -127 -79 -99 0
-103 -107 -79 -99 0
-104 -128 -108 -80 0
-104 -128 -108 -100 0
-104 -128 -80 -100 0
-104 -108 -80 -100 0
105 106 107 108 0
-105 199 0
-106 200 0
-199 200 0
-199 -106 0
-107 201 0
-200 201 0
-200 -107 0
-201 -108 0
-105 129 109 81 0
-105 129 109 101 0
-105 129 81 101 0
-105 109 81 101 0
-106 130 110 82 0
-106 130 110 102 0
-106 130 82 102 0
-106 110 82 102 0
-107 131 111 83 0
-107 131 111 103 0
-107 131 83 103 0
-107 111 83 103 0
-108 132 112 84 0
-108 132 112 104 0
-108 132 84 104 0
-108 112 84 104 0
-105 -129 -109 -81 0
-105 -129 -109 -101 0
-105 -129 -81 -101 0
-105 -109 -81 -101 0
-106 -130 -110 -82 0
-106 -130 -110 -102 0
-106 -130 -82 -102 0
-106 -110 -82 -102 0
-107 -131 -111 -83 0
-107 -131 -111 -103 0
-107 -131 -83 -103 0
-107 -111 -83 -103 0
-108 -132 -112 -84 0
-108 -132 -112 -104 0
-108 -132 -84 -104 0
-108 -112 -84 -104 0
109 110 111 112 0
-109 202 0
-110 203 0
-202 203 0
-202 -110 0
-111 204 0
-203 204 0
-203 -111 0
-204 -112 0
-109 133 113 85 0
-109 133 113 105 0
-109 133 85 105 0
-109 113 85 105 0
-110 134 114 86 0
-110 134 114 106 0
-110 134 86 106 0
-110 114 86 106 0
-111 135 115 87 0
-111 135 115 107 0
-111 135 87 107 0
-111 115 87 107 0
-112 136 116 88 0
-112 136 116 108 0
-112 136 88 108 0
-112 116 88 108 0
-109 -133 -113 -85 0
-109 -133 -113 -105 0
-109 -133 -85 -105 0
-109 -113 -85 -105 0
-110 -134 -114 -86 0
-110 -134 -114 -106 0
-110 -134 -86 -106 0
-110 -114 -86 -106 0
-111 -135 -115 -87 0
-111 -135 -115 -107 0
-111 -135 -87 -107 0
-111 -115 -87 -107 0
-112 -136 -116 -88 0
-112 -136 -116 -108 0
-112 -136 -88 -108 0
-112 -116 -88 -108 0
113 114 115 116 0
-113 205 0
-114 206 0
-205 206 0
-205 -114 0
-115 207 0
-206 207 0
-206 -115 0
-207 -116 0
-113 137 117 89 0
-113 137 117 109 0
-113 137 89 109 0
-113 117 89 109 0
-114 138 118 90 0
-114 138 118 110 0
-114 138 90 110 0
-114 118 90 110 0
-115 139 119 91 0
-115 139 119 111 0
-115 139 91 111 0
-115 119 91 111 0
-116 140 120 92 0
-116 140 120 112 0
-116 140 92 112 0
-116 120 92 112 0
-113 -137 -117 -89 0
-113 -137 -117 -109 0
-113 -137 -89 -109 0
-113 -117 -89 -109 0
-114 -138 -118 -90 0
-114 -138 -118 -110 0
-114 -138 -90 -110 0
-114 -118 -90 -110 0
-115 -139 -119 -91 0
-115 -139 -119 -111 0
-115 -139 -91 -111 0
-115 -119 -91 -111 0
-116 -140 -120 -92 0
-116 -140 -120 -112 0
-116 -140 -92 -112 0
-116 -120 -92 -112 0
117 118 119 120 0
-117 208 0
-118 209 0
-208 209 0
-208 -118 0
-119 210 0
-209 210 0
-209 -119 0
-210 -120 0
-117 141 113 0
-117 141 93 0
-117 113 93 0
-118 142 114 0
-118 142 94 0
-118 114 94 0
-119 143 115 0
-119 143 95 0
-119 115 95 0
-120 144 116 0
-120 144 96 0
-120 116 96 0
-117 -141 -113 -93 0
-118 -142 -114 -94 0
-119 -143 -115 -95 0
-120 -144 -116 -96 0
121 122 123 124 0
-121 211 0
-122 212 0
-211 212 0
-211 -122 0
-123 213 0
-212 213 0
-212 -123 0
-213 -124 0
-121 97 0
-121 125 0
-122 98 0
-122 126 0
-123 99 0
-123 127 0
-124 100 0
-124 128 0
125 126 127 128 0
-125 214 0
-126 215 0
-214 215 0
-214 -126 0
-127 216 0
-215 216 0
-215 -127 0
-216 -128 0
-125 101 129 0
-125 101 121 0
-125 129 121 0
-126 102 130 0
-126 102 122 0
-126 130 122 0
-127 103 131 0
-127 103 123 0
-127 131 123 0
-128 104 132 0
-128 104 124 0
-128 132 124 0
-125 -101 -129 -121 0
-126 -102 -130 -122 0
-127 -103 -131 -123 0
-128 -104 -132 -124 0
129 130 131 132 0
-129 217 0
-130 218 0
-217 218 0
-217 -130 0
-131 219 0
-218 219 0
-218 -131 0
-219 -132 0
-129 105 133 0
-129 105 125 0
-129 133 125 0
-130 106 134 0
-130 106 126 0
-130 134 126 0
-131 107 135 0
-131 107 127 0
-131 135 127 0
-132 108 136 0
-132 108 128 0
-132 136 128 0
-129 -105 -133 -125 0
-130 -106 -134 -126 0
-131 -107 -135 -127 0
-132 -108 -136 -128 0
133 134 135 136 0
-133 220 0
-134 221 0
-220 221 0
-220 -134 0
-135 222 0
-221 222 0
-221 -135 0
-222 -136 0
-133 109 137 0
-133 109 129 0
-133 137 129 0
-134 110 138 0
-134 110 130 0
-134 138 130 0
-135 111 139 0
-135 111 131 0
-135 139 131 0
-136 112 140 0
-136 112 132 0
-136 140 132 0
-133 -109 -137 -129 0
-134 -110 -138 -130 0
-135 -111 -139 -131 0
-136 -112 -140 -132 0
137 138 139 140 0
-137 223 0
-138 224 0
-223 224 0
-223 -138 0
-139 225 0
-224 225 0
-224 -139 0
-225 -140 0
-137 113 141 0
-137 113 133 0
-137 141 133 0
-138 114 142 0
-138 114 134 0
-138 142 134 0
-139 115 143 0
-139 115 135 0
-139 143 135 0
-140 116 144 0
-140 116 136 0
-140 144 136 0
-137 -113 -141 -133 0
-138 -114 -142 -134 0
-139 -115 -143 -135 0
-140 -116 -144 -136 0
141 142 143 144 0
-141 226 0
-142 227 0
-226 227 0
-226 -142 0
-143 228 0
-227 228 0
-227 -143 0
-228 -144 0
-141 117 0
-141 137 0
-142 118 0
-142 138 0
-143 119 0
-143 139 0
-144 120 0
-144 140 0